100
13 85
77 25
50 45
65 79
9 2
84 43
76 0
44 72
23 95
91 3
2 54
94 38
21 42
2 22
44 50
23 23
22 46
29 2
84 56
64 18
100 86
12 33
72 71
94 42
83 67
30 59
89 85
51 59
3 24
80 41
17 55
71 68
37 44
51 78
52 39
49 2
4 71
99 59
39 17
50 99
77 54
86 23
51 96
58 46
27 55
96 0
79 82
89 74
81 52
56 43
5 87
57 20
50 48
36 34
54 62
61 46
2 23
17 59
86 80
80 82
25 85
67 8
1 1
76 25
11 63
34 7
16 53
16 27
71 45
32 47
2 39
42 18
10 90
51 21
61 82
2 1
14 72
16 71
68 55
22 98
80 52
22 65
39 58
32 63
5 30
97 88
30 86
31 94
75 42
25 0
88 3
82 97
57 17
87 98
71 51
38 35
20 68
43 19
10 67
29 50
